decision_x1=[0,2];
decision_x2=[0,2];
decision_x3=[0,2];
decision_x4=[0,2];
decision_x5=[0,2];
decision_x6=[0,2];
decision_x7=[0,2];
decision_x8=[0,2];
decision_x9=[0,2];
decision_x10=[0,2];
random_y1=[0,2];
random_y2=[0,2];
constraint_x3_x1=[
0,1,2.8|
0,2,9.3|
1,0,7.6|
1,2,7|
2,0,1.8|
2,1,3.1|
];
constraint_x4_x2=[
0,1,4.8|
0,2,8.7|
1,0,2.7|
1,2,2.1|
2,0,3.9|
2,1,5.3|
];
constraint_x4_x3=[
0,1,2.8|
0,2,0.46|
1,0,9.8|
1,2,4.7|
2,0,3.5|
2,1,6.7|
];
constraint_x5_x1=[
0,1,1|
0,2,8.8|
1,0,2.2|
1,2,1.3|
2,0,4.4|
2,1,3.5|
];
constraint_x6_x3=[
0,1,6.3|
0,2,6.6|
1,0,2.4|
1,2,5.8|
2,0,6.6|
2,1,0.69|
];
constraint_x6_x4=[
0,1,2.5|
0,2,7.9|
1,0,2|
1,2,5.5|
2,0,4.3|
2,1,3|
];
constraint_x6_x5=[
0,1,9.6|
0,2,7.5|
1,0,5.6|
1,2,4.2|
2,0,1.5|
2,1,3.6|
];
constraint_x7_x2=[
0,1,0.58|
0,2,8.5|
1,0,2.1|
1,2,6.4|
2,0,7.3|
2,1,3.4|
];
constraint_x7_x4=[
0,1,8.8|
0,2,9.7|
1,0,2|
1,2,2.1|
2,0,7.9|
2,1,4.3|
];
constraint_x8_x1=[
0,1,3.5|
0,2,7.8|
1,0,0.85|
1,2,1.7|
2,0,9.3|
2,1,4.5|
];
constraint_x8_x2=[
0,1,3.7|
0,2,1.2|
1,0,3.9|
1,2,6.6|
2,0,5.4|
2,1,2.7|
];
constraint_x8_x3=[
0,1,4.5|
0,2,6.6|
1,0,7.5|
1,2,1.7|
2,0,8.5|
2,1,0.22|
];
constraint_x8_x4=[
0,1,3.2|
0,2,1.2|
1,0,0.89|
1,2,5.4|
2,0,7.8|
2,1,4.2|
];
constraint_x8_x5=[
0,1,9.2|
0,2,8.6|
1,0,1.4|
1,2,7.2|
2,0,4.8|
2,1,3|
];
constraint_x9_x2=[
0,1,1.8|
0,2,5.6|
1,0,7.7|
1,2,0.8|
2,0,1.8|
2,1,2|
];
constraint_x9_x3=[
0,1,5.1|
0,2,3.8|
1,0,1.8|
1,2,8.6|
2,0,4.6|
2,1,4.2|
];
constraint_x9_x4=[
0,1,4.8|
0,2,5.6|
1,0,5.9|
1,2,5.3|
2,0,2.9|
2,1,4.2|
];
constraint_x9_x6=[
0,1,4.8|
0,2,1.7|
1,0,7.6|
1,2,7.1|
2,0,2.2|
2,1,3.3|
];
constraint_x9_x7=[
0,1,0.63|
0,2,8.8|
1,0,8.7|
1,2,1.4|
2,0,4.4|
2,1,7.5|
];
constraint_x10_x1=[
0,1,5.6|
0,2,9.7|
1,0,6.9|
1,2,7.7|
2,0,3|
2,1,2.6|
];
constraint_x10_x6=[
0,1,9.2|
0,2,3.9|
1,0,8.5|
1,2,8.6|
2,0,3.2|
2,1,8.5|
];
constraint_x10_x8=[
0,1,6.7|
0,2,6.4|
1,0,3.7|
1,2,3.3|
2,0,3.6|
2,1,7|
];
constraint_x10_x9=[
0,1,5.5|
0,2,3.2|
1,0,0.26|
1,2,6|
2,0,2|
2,1,0.031|
];
constraint_x1_y1=[
0,0,5.6|
0,1,5.2|
0,2,9.2|
1,0,0.48|
1,1,7.3|
1,2,1.8|
2,0,4.6|
2,1,4|
2,2,8.3|
];
constraint_x2_y2=[
0,0,3.3|
0,1,7|
0,2,5.8|
1,0,6.3|
1,1,2.1|
1,2,4.5|
2,0,6.3|
2,1,5.6|
2,2,8.9|
];
initial_distribution_y1=[0.49,0.022,0.49];
initial_distribution_y2=[0.21,0.31,0.47];
transition_y1=[
0.52,0.47,0.0064|
0.41,0.27,0.33|
0.96,0.019,0.021|
];
transition_y2=[
0.35,0.11,0.54|
0.48,0.15,0.38|
0.47,0.2,0.33|
];
